
  22   10
  10   10   10   10   10   10   10   10   10   10

   0   0   0   0   0   0   0   0   0   0   0   2 2 6 
   1   0   0   0   0   0   0   0  10   0   0   2 5 3 
  10   0   0   0   0   0   0   0  10   0   0   1 4 
   7   0   0   0   0   0  10   0   0   0   0   1 7 
   5   0   0   0   0   0   0   0  10   0   0   1 7 
   4   0   0   0   0   0  10   0   0   0   0   1 7 
   9   0   0   0  10   0   0   0   0   0   0   1 8 
   3   0   0  10   0   0   0   0   0   0   0   2 12 9 
   6   0   0   0   0   0   0   0   0  10   0   1 10 
   9   0   0   0   0   0   0   0   0  10   0   1 11 
   2   0   0   0   0   0   0   0  10   0   0   2 14 13 
   3   0   0   0   0   0  10   0   0   0   0   2 14 13 
   4   0   0   0   0  10   0   0   0   0   0   2 17 15 
   1   0   0   0   0  10   0   0   0   0   0   2 17 15 
   3   0   0   0   0   0   0   0   0  10   0   1 16 
   3   0   0   0   0   0   0   0   0   0  10   1 18 
   9   0   0   0   0   0  10   0   0   0   0   1 18 
   3   0   0   0   0   0   0   0   0   0  10   2 20 19 
   5   0   0   0  10   0   0   0   0   0   0   1 21 
  10   0  10   0   0   0   0   0   0   0   0   1 21 
  10   0   0   0  10   0   0   0   0   0   0   1 22
   0   0   0   0   0   0   0   0   0   0   0   0 
